000 000 000 000 000 000 000 000 000 -99 -99 -99 000 000 000 000 -99 -99 000 000 000 000 -99 -99 000 000 000 000 -99 -99 -99
-99 000 000 000 000 000 000 000 000 000 -99 -99 -99 000 000 000 -99 -99 -99 000 000 000 000 -99 000 000 -99 000 -99 -99 -99
-99 000 000 000 000 000 000 000 000 000 -99 -99 -99 -99 000 000 -99 -99 -99 -99 000 000 000 000 000 000 000 000 -99 -99 -99
000 000 000 000 000 000 000 000 000 000 -99 -99 000 -99 000 000 -99 -99 -99 000 000 000 000 000 000 000 000 000 -99 -99 -99
000 000 000 000 000 000 000 000 000 000 -99 -99 000 000 000 000 -99 -99 -99 -99 000 000 000 000 000 000 -99 -99 -99 -99 -99
000 000 000 000 000 000 000 000 000 000 -99 000 000 000 000 000 -99 000 -99 -99 000 000 000 000 000 000 -99 -99 -99 -99 -99
000 000 000 000 000 000 000 000 000 000 000 000 000 000 000 000 -99 000 -99 -99 000 000 000 000 000 000 -99 -99 -99 -99 -99
000 000 000 000 000 000 000 000 000 000 000 000 000 000 -99 -99 -99 000 000 -99 000 000 -99 000 000 -99 -99 -99 -99 000 000
000 000 000 000 000 000 000 000 000 000 000 000 -99 -99 -99 -99 -99 000 000 -99 000 -99 -99 000 000 -99 -99 -99 -99 000 000
000 000 000 000 000 000 000 -99 000 000 000 000 000 -99 000 000 -99 000 000 -99 -99 -99 -99 -99 000 -99 -99 000 -99 000 000
000 000 000 000 000 000 000 000 000 000 000 000 000 -99 000 000 000 -99 000 000 -99 -99 -99 -99 -99 -99 000 000 000 000 000
000 000 000 000 000 000 000 000 000 000 000 000 000 000 000 000 000 -99 000 000 -99 -99 -99 000 000 -99 000 000 000 000 000
000 000 000 000 000 000 000 000 000 000 000 000 000 -99 -99 000 000 000 000 000 -99 -99 -99 -99 000 000 000 000 000 000 000
000 000 000 000 000 000 000 000 000 -99 000 000 000 000 -99 000 000 000 000 000 -99 -99 000 -99 000 000 000 000 000 000 000
000 000 000 000 000 000 000 000 000 000 -99 -99 000 000 -99 000 000 000 000 -99 -99 -99 000 -99 000 000 000 000 000 000 000
-99 -99 000 000 000 000 000 000 000 000 -99 -99 000 000 000 000 000 000 000 -99 -99 000 -99 -99 000 000 000 000 000 000 -99
-99 -99 -99 -99 -99 -99 000 000 000 000 -99 -99 -99 000 000 000 000 000 000 000 -99 -99 000 -99 -99 000 000 000 000 000 -99
000 000 000 -99 -99 -99 000 000 000 000 000 000 -99 -99 000 000 000 000 -99 -99 -99 000 000 -99 -99 -99 000 000 000 000 -99
000 000 000 -99 -99 -99 000 000 000 000 -99 000 -99 -99 000 000 000 000 000 -99 -99 000 000 -99 -99 000 000 -99 000 000 -99
000 000 000 000 000 000 -99 000 000 000 000 000 008 -99 000 000 000 000 000 -99 000 000 000 -99 -99 000 000 -99 000 000 -99
000 000 000 000 000 000 -99 -99 000 000 -99 003 004 -99 000 000 000 000 000 000 000 000 000 -99 -99 -99 -99 -99 -99 -99 -99
000 000 000 000 000 000 000 000 000 000 -99 007 001 -99 000 000 000 000 000 000 000 000 000 -99 -99 -99 -99 -99 -99 -99 -99
000 000 000 000 000 000 000 000 000 000 -99 009 001 000 000 000 000 000 000 000 000 000 000 -99 -99 -99 -99 -99 -99 -99 -99
000 000 000 000 000 000 000 000 000 -99 -99 -99 000 000 000 000 000 000 000 000 000 000 000 -99 -99 -99 -99 -99 -99 -99 -99
000 000 000 000 000 000 -99 000 000 -99 -99 -99 000 000 000 000 000 000 000 000 000 000 000 -99 -99 -99 -99 -99 -99 -99 -99
000 000 000 000 000 000 000 000 000 000 -99 -99 -99 000 000 000 000 000 000 000 000 000 -99 -99 -99 -99 -99 -99 -99 -99 -99
000 000 000 000 000 000 000 000 000 000 000 -99 -99 000 000 000 000 000 000 000 000 000 000 -99 -99 -99 -99 -99 -99 -99 -99
000 000 000 000 000 000 000 000 000 000 -99 -99 -99 -99 000 000 000 000 000 000 000 000 000 -99 -99 -99 -99 -99 -99 -99 -99
000 000 000 000 000 000 000 000 000 -99 -99 -99 -99 000 000 000 000 000 000 000 000 000 -99 -99 -99 -99 -99 -99 -99 -99 -99
000 000 000 000 000 000 000 000 000 -99 -99 -99 -99 000 000 000 000 000 000 000 000 000 -99 -99 -99 -99 -99 -99 -99 -99 -99
000 000 000 000 000 000 000 000 000 -99 -99 001 -99 000 000 000 000 000 000 000 000 000 -99 000 -99 -99 -99 -99 -99 -99 -99
000 000 000 000 000 000 000 000 000 000 -99 000 003 000 000 -99 000 000 000 000 -99 -99 -99 000 000 -99 -99 -99 -99 -99 -99
000 000 000 000 000 000 000 000 000 000 -99 001 001 000 000 -99 000 000 000 -99 -99 -99 -99 000 000 -99 -99 -99 -99 -99 -99
000 000 000 000 000 000 000 000 000 000 -99 000 -99 000 000 000 000 000 000 000 -99 -99 -99 000 000 000 -99 000 000 000 000
000 000 000 000 000 000 000 000 000 000 000 000 000 000 000 000 000 000 -99 000 000 -99 -99 000 000 000 000 000 000 000 000
000 000 000 000 000 000 000 000 000 000 000 000 000 000 000 000 000 000 000 000 000 000 -99 000 000 000 000 000 000 000 000
000 000 000 000 000 000 000 000 000 000 000 000 000 000 000 000 000 -99 000 000 000 000 000 000 000 000 000 000 000 000 000
000 000 000 000 000 000 000 000 000 000 -99 000 000 000 000 000 000 -99 000 000 000 000 -99 000 000 000 000 000 000 000 000
000 000 000 000 000 000 000 000 000 000 -99 000 000 000 000 000 000 000 -99 000 000 000 -99 000 000 000 000 000 -99 000 000
000 000 000 000 000 000 000 000 000 000 000 000 000 000 000 000 000 000 -99 -99 000 -99 -99 000 000 000 000 000 -99 000 000
000 000 000 000 000 000 000 000 000 000 000 000 000 000 000 000 000 000 -99 000 -99 000 000 000 000 000 000 -99 -99 000 000
000 000 000 000 000 000 000 000 000 000 000 000 000 000 000 000 000 000 -99 000 -99 000 000 000 000 000 000 -99 -99 000 000
000 000 000 000 000 000 000 000 000 000 000 000 000 000 000 000 000 000 -99 000 -99 -99 -99 000 000 000 -99 -99 -99 000 -99
000 000 000 000 000 000 000 000 000 000 000 000 000 000 000 000 000 000 000 -99 -99 000 000 000 000 000 -99 -99 -99 -99 -99
000 000 000 000 000 000 000 -99 -99 000 000 000 000 000 000 000 000 000 000 -99 000 000 000 000 000 000 000 -99 -99 -99 -99
000 000 000 000 000 -99 000 -99 -99 -99 000 000 000 000 000 000 000 000 -99 -99 000 000 000 000 000 000 000 -99 -99 -99 -99
000 -99 000 000 000 -99 -99 -99 -99 -99 000 000 000 000 000 000 -99 000 000 000 000 000 000 000 000 000 -99 -99 -99 -99 -99
000 -99 000 000 -99 -99 -99 -99 -99 -99 -99 -99 000 000 000 000 -99 000 -99 000 000 000 000 000 000 000 -99 -99 -99 -99 -99
-99 -99 -99 -99 -99 -99 -99 -99 -99 -99 -99 -99 000 000 000 -99 000 000 000 000 000 000 000 000 000 000 -99 000 -99 -99 -99
-99 -99 -99 -99 -99 -99 -99 -99 -99 -99 000 -99 -99 000 000 -99 000 000 000 000 000 000 -99 -99 -99 -99 000 000 000 -99 -99
-99 -99 -99 -99 -99 -99 -99 -99 -99 000 000 000 000 000 000 000 000 000 000 000 000 000 -99 -99 -99 -99 000 -99 -99 -99 -99
-99 -99 -99 -99 -99 -99 -99 -99 -99 -99 000 -99 000 000 -99 000 000 001 000 000 000 -99 -99 -99 -99 -99 -99 -99 -99 -99 -99
-99 -99 -99 -99 -99 -99 -99 -99 -99 -99 -99 -99 -99 -99 000 000 000 000 000 000 000 000 -99 -99 -99 -99 -99 -99 -99 -99 -99
-99 -99 -99 -99 -99 -99 -99 -99 -99 -99 -99 -99 -99 000 000 000 000 000 000 001 001 -99 -99 -99 -99 -99 -99 -99 -99 -99 -99
-99 -99 -99 -99 -99 -99 -99 -99 -99 -99 -99 -99 -99 000 000 000 000 000 000 001 001 -99 -99 -99 -99 -99 -99 -99 -99 -99 -99
